p tw 150 300
0 1
0 2
0 9
0 10
1 2
1 9
1 114
2 64
2 117
3 4
3 5
3 98
3 110
4 5
4 35
4 36
5 35
5 84
6 7
6 8
6 105
6 140
7 8
7 70
7 71
8 104
8 105
9 10
9 114
10 66
10 67
11 12
11 13
11 112
11 120
12 13
12 76
12 121
13 75
13 76
14 15
14 16
14 83
14 92
15 16
15 102
15 140
16 68
16 102
17 18
17 19
17 106
17 107
18 19
18 107
18 114
19 108
19 109
20 21
20 22
20 123
20 124
21 22
21 71
21 86
22 36
22 123
23 24
23 25
23 43
23 44
24 25
24 109
24 122
25 44
25 85
26 27
26 28
26 59
26 103
27 28
27 63
27 117
28 87
28 103
29 30
29 31
29 93
29 94
30 31
30 68
30 69
31 69
31 104
32 33
32 34
32 115
32 131
33 34
33 108
33 122
34 106
34 115
35 36
35 84
36 123
37 38
37 39
37 58
37 59
38 39
38 58
38 142
39 45
39 46
40 41
40 42
40 128
40 131
41 42
41 77
41 78
42 127
42 128
43 44
43 93
43 129
44 85
45 46
45 57
45 87
46 56
46 57
47 48
47 49
47 85
47 95
48 49
48 95
48 148
49 54
49 133
50 51
50 52
50 96
50 97
51 52
51 111
51 120
52 96
52 121
53 54
53 55
53 77
53 141
54 55
54 133
55 127
55 133
56 57
56 60
56 132
57 87
58 59
58 142
59 103
60 61
60 62
60 132
61 62
61 73
61 91
62 113
62 132
63 64
63 65
63 117
64 65
64 117
65 67
65 101
66 67
66 101
66 144
67 101
68 69
68 102
69 104
70 71
70 79
70 86
71 86
72 73
72 74
72 91
72 116
73 74
73 91
74 97
74 137
75 76
75 99
75 110
76 121
77 78
77 141
78 141
78 149
79 80
79 81
79 86
80 81
80 124
80 130
81 119
81 130
82 83
82 84
82 92
82 100
83 84
83 92
85 95
87 103
88 89
88 90
88 118
88 119
89 90
89 138
89 147
90 118
90 145
91 116
92 100
93 94
93 129
94 129
94 148
95 148
96 97
96 121
97 137
98 99
98 100
98 110
99 100
99 110
101 144
102 140
104 105
105 140
106 107
106 115
107 114
108 109
108 122
109 122
111 112
111 113
111 120
112 113
112 120
113 132
115 131
116 125
116 126
118 119
118 145
119 130
123 124
124 130
125 126
125 146
125 149
126 137
126 146
127 128
127 133
128 131
129 148
134 135
134 136
134 143
134 144
135 136
135 143
135 145
136 138
136 139
137 146
138 139
138 147
139 142
139 147
141 149
142 147
143 144
143 145
146 149
